Route #1: 2 48 38 9 16 32 34 19 15 49
Route #2: 13 46 26 22 17 50 12 45 4
Route #3: 23 21 14 39 24 31 11 28 3
Route #4: 51 5 8 27 29 10 44
Route #5: 41 25 36 6 47 37
Route #6: 1 30 18 20 42 40
Route #7: 35 33 7 43
Cost 758